3 100 1847
3 8 3 11 3 8 6 5 7 6
2 2 1
7 1
6 4
4
0 35.0 35.0 0.0 0.0 0 230
2 41.0 49.0 10.0 10.0 15 204 77 0 1 0 0 0 0 0 0 0 0
3 35.0 17.0 10.0 7.0 18 202 74 0 0 0 0 0 1 0 0 0 0
4 55.0 45.0 10.0 13.0 54 187 10 0 0 1 0 0 0 0 0 0 0
5 55.0 20.0 10.0 19.0 138 169 80 0 0 0 1 0 1 1 0 1 0
6 15.0 30.0 10.0 26.0 20 199 52 0 0 0 0 0 1 0 0 0 0
7 25.0 30.0 10.0 3.0 76 131 11 1 1 0 0 0 0 0 0 0 0
8 20.0 50.0 10.0 5.0 21 170 16 0 0 0 0 0 0 0 0 1 0
9 10.0 43.0 10.0 9.0 87 112 24 0 1 1 1 0 0 0 0 0 1
10 55.0 60.0 10.0 16.0 88 115 60 0 1 0 1 0 0 0 0 1 0
11 30.0 60.0 10.0 16.0 107 150 61 0 1 0 0 0 1 0 0 0 0
12 20.0 65.0 10.0 12.0 57 86 28 0 0 1 1 0 0 0 0 0 1
13 50.0 35.0 10.0 19.0 15 192 51 1 0 0 1 0 0 0 0 1 0
14 30.0 25.0 10.0 23.0 147 180 25 0 0 0 0 0 1 0 0 0 0
15 15.0 10.0 10.0 20.0 32 187 95 0 0 0 0 0 0 0 0 0 1
16 30.0 5.0 10.0 8.0 50 81 70 0 0 0 0 0 0 0 0 0 1
17 10.0 20.0 10.0 19.0 29 139 97 0 0 0 0 0 1 0 0 0 0
18 5.0 30.0 10.0 2.0 124 189 41 1 1 1 0 0 0 0 0 1 0
19 20.0 40.0 10.0 12.0 47 136 97 0 0 0 1 0 0 1 0 0 0
20 15.0 60.0 10.0 17.0 32 146 39 0 0 0 1 1 0 0 0 1 0
21 45.0 65.0 10.0 9.0 79 182 21 0 0 0 0 0 0 1 1 0 0
22 45.0 20.0 10.0 11.0 18 195 7 0 0 0 0 0 1 0 1 0 0
23 45.0 10.0 10.0 18.0 76 127 1 0 1 0 1 0 0 1 1 0 1
24 55.0 5.0 10.0 29.0 58 87 83 0 0 0 0 0 0 1 0 0 1
25 65.0 35.0 10.0 3.0 58 190 50 1 0 0 0 0 0 0 0 0 0
26 65.0 20.0 10.0 6.0 153 186 81 0 1 0 0 1 0 0 0 1 0
27 45.0 30.0 10.0 17.0 58 208 96 0 0 0 0 0 0 0 1 0 0
28 35.0 40.0 10.0 16.0 8 75 56 0 1 0 0 0 0 0 0 1 0
29 41.0 37.0 10.0 16.0 6 136 90 0 0 0 0 0 0 0 0 1 1
30 64.0 42.0 10.0 9.0 29 150 65 0 1 1 0 0 1 0 0 0 0
31 40.0 60.0 10.0 21.0 49 102 35 0 0 0 0 0 1 0 0 0 0
32 31.0 52.0 10.0 27.0 17 198 82 0 1 0 0 0 0 0 0 0 0
33 35.0 69.0 10.0 23.0 67 186 59 0 0 0 0 0 0 0 1 0 0
34 53.0 52.0 10.0 11.0 24 92 78 0 0 0 0 1 0 1 0 0 0
35 65.0 55.0 10.0 14.0 36 183 83 0 0 0 0 0 0 0 0 0 1
36 63.0 65.0 10.0 8.0 116 178 63 0 1 0 0 0 0 0 0 0 0
37 2.0 60.0 10.0 5.0 41 112 56 0 1 0 0 0 0 0 0 0 0
38 20.0 20.0 10.0 8.0 42 198 60 0 0 1 1 1 0 0 0 0 0
39 5.0 5.0 10.0 16.0 74 101 81 0 0 1 0 0 0 0 0 1 0
40 60.0 12.0 10.0 31.0 33 110 55 1 1 0 1 0 0 0 0 0 0
41 40.0 25.0 10.0 9.0 65 114 20 0 0 1 0 0 0 0 0 1 0
42 42.0 7.0 10.0 5.0 72 131 82 0 0 0 0 1 0 0 0 0 0
43 24.0 12.0 10.0 5.0 25 91 11 0 0 1 0 0 0 0 0 0 0
44 23.0 3.0 10.0 7.0 82 185 20 0 0 0 1 0 0 0 0 0 0
45 11.0 14.0 10.0 18.0 59 88 6 0 0 0 0 0 1 0 0 0 0
46 6.0 38.0 10.0 16.0 29 99 5 1 0 0 0 0 0 0 0 0 0
47 2.0 48.0 10.0 1.0 63 180 73 0 1 0 0 0 0 0 0 0 0
48 8.0 56.0 10.0 27.0 34 176 71 0 0 0 1 0 0 0 1 0 0
49 13.0 52.0 10.0 36.0 27 192 37 0 0 0 0 0 1 0 0 0 0
50 6.0 68.0 10.0 30.0 93 132 77 0 0 0 0 0 1 0 0 0 0
51 47.0 47.0 10.0 13.0 41 203 36 0 0 1 0 0 1 0 0 0 1
52 49.0 58.0 10.0 10.0 36 149 79 0 0 0 0 0 1 1 0 0 0
53 27.0 43.0 10.0 9.0 11 195 18 0 0 0 0 0 0 0 1 0 0
54 37.0 31.0 10.0 14.0 87 112 11 0 0 1 0 1 0 0 0 1 0
55 57.0 29.0 10.0 18.0 90 197 97 0 1 1 0 0 0 0 1 0 0
56 63.0 23.0 10.0 2.0 126 155 19 0 0 0 0 0 1 0 0 0 0
57 53.0 12.0 10.0 6.0 106 163 72 0 0 0 0 0 0 0 1 0 0
58 32.0 12.0 10.0 7.0 48 163 18 0 1 0 0 0 0 0 1 0 0
59 36.0 26.0 10.0 18.0 178 210 45 0 1 0 0 0 0 0 0 0 0
60 21.0 24.0 10.0 28.0 17 202 44 0 1 0 0 0 0 0 0 0 0
61 17.0 34.0 10.0 3.0 70 201 0 0 0 0 0 0 1 0 0 0 0
62 12.0 24.0 10.0 13.0 29 132 44 0 0 0 0 0 0 1 0 0 1
63 24.0 58.0 10.0 19.0 46 79 12 0 0 1 1 0 0 0 0 1 0
64 27.0 69.0 10.0 10.0 34 172 1 0 0 0 0 0 1 0 0 0 0
65 15.0 77.0 10.0 9.0 48 107 71 0 0 0 0 0 1 0 0 0 0
66 62.0 77.0 10.0 20.0 49 113 50 0 0 0 0 0 0 0 0 1 0
67 49.0 73.0 10.0 25.0 104 159 48 0 0 1 0 0 1 0 0 0 0
68 67.0 5.0 10.0 25.0 73 102 18 0 0 0 0 1 1 1 1 0 0
69 56.0 39.0 10.0 36.0 117 176 50 0 0 0 0 0 0 1 0 1 0
70 37.0 47.0 10.0 6.0 39 70 60 0 0 0 0 1 0 0 1 0 0
71 37.0 56.0 10.0 5.0 123 198 22 1 0 1 0 0 0 0 0 0 0
72 57.0 68.0 10.0 15.0 39 148 45 0 1 0 0 0 0 0 0 1 0
73 47.0 16.0 10.0 25.0 22 197 49 0 0 0 1 0 0 0 0 0 0
74 44.0 17.0 10.0 9.0 30 135 2 0 0 0 0 0 1 0 0 0 0
75 46.0 13.0 10.0 8.0 138 169 37 0 0 0 0 0 1 0 0 0 0
76 49.0 11.0 10.0 18.0 27 192 51 0 0 0 1 0 1 0 0 0 0
77 49.0 42.0 10.0 13.0 65 90 3 1 0 0 0 1 1 1 0 1 0
78 53.0 43.0 10.0 14.0 168 199 96 0 0 0 0 0 0 0 0 1 0
79 61.0 52.0 10.0 3.0 71 130 55 1 0 0 0 0 0 0 0 0 0
80 57.0 48.0 10.0 23.0 84 109 80 0 0 0 0 0 0 0 0 0 1
81 56.0 37.0 10.0 6.0 135 198 14 1 0 0 0 1 0 0 0 0 1
82 55.0 54.0 10.0 26.0 57 140 89 0 1 0 1 0 0 1 0 0 0
83 15.0 47.0 10.0 16.0 23 196 68 0 0 0 1 0 0 0 0 0 0
84 14.0 37.0 10.0 11.0 21 198 34 0 0 0 1 0 0 0 1 0 0
85 11.0 31.0 10.0 7.0 93 118 62 0 1 0 1 1 0 0 0 0 0
86 16.0 22.0 10.0 41.0 23 177 56 0 0 0 1 0 0 0 0 0 1
87 4.0 18.0 10.0 35.0 49 148 12 0 1 0 1 0 0 0 0 0 0
88 28.0 18.0 10.0 26.0 88 107 64 0 0 0 0 0 0 1 0 0 0
89 26.0 52.0 10.0 9.0 50 107 1 0 0 0 1 0 0 0 1 1 0
90 26.0 35.0 10.0 15.0 68 211 96 0 1 0 0 0 0 1 0 0 1
91 31.0 67.0 10.0 3.0 46 153 21 0 0 0 0 0 0 0 1 0 1
92 15.0 19.0 10.0 1.0 25 194 64 1 0 0 1 0 0 0 0 0 0
93 22.0 22.0 10.0 2.0 18 53 83 0 0 0 0 0 0 0 0 0 1
94 18.0 24.0 10.0 22.0 129 199 25 1 0 0 0 0 1 0 0 0 0
95 26.0 27.0 10.0 27.0 35 174 67 0 0 0 0 1 1 0 0 0 0
96 25.0 24.0 10.0 20.0 14 205 65 0 0 0 0 0 0 1 0 0 0
97 22.0 27.0 10.0 11.0 51 204 79 1 0 0 0 0 0 0 0 0 0
98 25.0 21.0 10.0 12.0 92 183 84 0 0 0 1 0 0 0 0 1 0
99 19.0 21.0 10.0 10.0 21 198 9 0 0 0 0 1 1 0 0 0 0
100 20.0 26.0 10.0 9.0 74 101 35 0 0 0 0 0 0 0 0 0 1
101 18.0 18.0 10.0 17.0 159 195 66 1 0 1 0 0 0 0 1 0 0